NAME : 10_3_3_1_(01).dat
COMMENT : Henke, Speranza, Wäscher, 2015
TYPE : MCVRP
DIMENSION : 11
EDGE_WEIGHT_TYPE : DISTANCE_MATRIX
CAPACITY : 1000
VEHICLES : 2
PRODUCT TYPES : 3
COMPARTMENTS : 3
NODE_COORD_SECTION
1 50 50
2 25.44 95.54
3 23.29 18.43
4 7.41 7.64
5 64.22 71.92
6 47.66 0.39
7 53.74 9.04
8 38.84 11.6
9 1.44 38.56
10 61.01 28.69
11 64.26 12.89
DEMAND_SECTION
1 0 0 0
2 0 92 0
3 0 0 88
4 0 0 112
5 52 0 0
6 0 325 0
7 294 0 0
8 20 0 0
9 133 0 0
10 0 0 78
11 197 0 0
DEPOT_SECTION
1
EOF